0 3802
2 3781
4 3755
5 3754
6 3726
7 3721
10 3709
12 3703
13 3678
14 3645
18 3626
19 3592
20 3559
22 3553
29 3548
34 3534
43 3500
44 3489
46 3486
48 3475
58 3459
65 3450
74 3428
79 3417
102 3411
109 3401
123 3399
125 3392
131 3384
134 3355
143 3334
180 3328
275 3324
352 3320
354 3315
359 3304
371 3302
481 3285
483 3283
513 3275
568 3273
609 3247
622 3238
650 3234
755 3225
905 3221
910 3219
944 3212
1020 3206
1040 3198
1138 3197
1311 3195
1362 3193
1437 3183
1525 3182
1562 3181
1637 3175
1673 3171
1691 3168
1793 3167
1814 3166
1864 3165
2113 3164
2313 3161
2518 3156
2862 3153
3574 3151
3678 3149
3756 3147
4118 3143
